out/bwp_4_8_1_lp.out
59
0 -0    2 2
0 3    2 5
1 56    3 58
0 6    2 15
0 16    2 25
0 26    2 35
1 36    3 45
1 46    3 55
