out/bwp_4_8_1_lp.log
Tried aggregator 2 times.
MIP Presolve eliminated 65 rows and 276 columns.
MIP Presolve modified 110 coefficients.
Aggregator did 140 substitutions.
Reduced MIP has 146 rows, 114 columns, and 307 nonzeros.
Reduced MIP has 90 binaries, 9 generals, 0 SOSs, and 48 indicators.
Presolve time = 0.00 sec. (1.09 ticks)
Found incumbent of value 59.000000 after 0.01 sec. (1.33 ticks)
Probing changed sense of 60 constraints.
Probing time = 0.00 sec. (1.58 ticks)
Cover probing fixed 0 vars, tightened 1 bounds.
Tried aggregator 1 time.
MIP Presolve eliminated 90 rows and 75 columns.
Reduced MIP has 56 rows, 39 columns, and 127 nonzeros.
Reduced MIP has 15 binaries, 17 generals, 0 SOSs, and 48 indicators.
Presolve time = 0.00 sec. (0.18 ticks)
Probing time = 0.00 sec. (0.12 ticks)
Tried aggregator 1 time.
Reduced MIP has 56 rows, 39 columns, and 127 nonzeros.
Reduced MIP has 15 binaries, 17 generals, 0 SOSs, and 48 indicators.
Presolve time = 0.00 sec. (0.06 ticks)
Probing time = 0.00 sec. (0.12 ticks)
Clique table members: 75.
MIP emphasis: balance optimality and feasibility.
MIP search method: dynamic search.
Parallel mode: deterministic, using up to 4 threads.
Root relaxation solution time = 0.00 sec. (0.11 ticks)

        Nodes                                         Cuts/
   Node  Left     Objective  IInf  Best Integer    Best Bound    ItCnt     Gap

*     0+    0                           59.0000       50.0000       11   15.25%
      0     0       50.0000     3       59.0000       50.0000       11   15.25%
      0     0       50.0000     3       59.0000      Cuts: 15       31   15.25%
      0     0       50.0000     3       59.0000       Cuts: 8       43   15.25%
      0     2       50.0000     3       59.0000       50.0000       43   15.25%
Elapsed time = 0.03 sec. (4.67 ticks, tree = 0.01 MB, solutions = 1)

Implied bound cuts applied:  12
Gomory fractional cuts applied:  5

Root node processing (before b&c):
  Real time             =    0.03 sec. (4.63 ticks)
Parallel b&c, 4 threads:
  Real time             =    0.01 sec. (0.65 ticks)
  Sync time (average)   =    0.00 sec.
  Wait time (average)   =    0.00 sec.
                          ------------
Total (root+branch&cut) =    0.03 sec. (5.28 ticks)
